
Gurobi 7.5.1 (mac64, Python) logging started Wed Dec  6 11:29:13 2017

Academic license - for non-commercial use only

Gurobi 7.5.1 (mac64) logging started Mon Dec 11 11:37:34 2017

Academic license - for non-commercial use only

Gurobi 7.5.1 (mac64) logging started Mon Dec 11 11:37:40 2017

Academic license - for non-commercial use only
